N = 9;
H = 5;
T = 2;

avail = array3d(1..N, 1..H, 1..T, [2, 2, 7, 0, 1, 8, 6, 2, 0, 3, 5, 0, 5, 7, 0, 9, 10, 9, 1, 6, 7, 2, 6, 4, 1, 0, 4, 0, 5, 10, 3, 10, 5, 0, 6, 3, 2, 1, 2, 6, 1, 1, 0, 4, 4, 7, 3, 9, 0, 4, 9, 10, 10, 8, 0, 2, 0, 5, 7, 8, 2, 7, 7, 0, 0, 0, 3, 2, 5, 3, 4, 8, 3, 2, 5, 4, 5, 0, 3, 5, 7, 5, 1, 5, 4, 6, 1, 5, 3, 3]);

r = array2d(1..H, 1..T, [2, 4, 2, 2, 2, 5, 2, 3, 2, 1]);
